
%FILE DATA:	Soccer Computational Problem for MiniZinc Models	%
%AUTHOR:	Jack Wall	%
%CONTACT:  	116397063@umail.ucc.ie			%
%LAST UPDATE:	03/19/2020, 19:31:31						%
%DESCRIPTION: 	255 games played with 17 games left				%


n=17; %number of teams

%Games to play
games=[|4,2|4,6|15,4|9,7|1,8|1,4|7,15|8,3|16,10|13,8|8,16|12,9|9,3|2,13|12,15|4,10|5,16|];

%Initial points
iPoints=[39,54,52,38,32,34,33,33,31,34,31,46,47,47,36,45,39];

%POSITION CONSTRAINTS
% [|teamID, operator, position|...]
% operators index:
%  1 for =  operator
%  2 for >  operator
%  3 for >= operator
%  4 for <  operator
%  5 for <= operator
positionConstraints=[|3,1,1|16,4,3|2,5,3|];